seed= 2052018 ;
N= 90 ;
M= 2 ;
F= 3 ;
K= 8 ;
T= 24 ;

p=[ 4 4 4 4 4 4 4 4 4 4 4 4 4 4 4 4 4 4 4 4 4 4 4 4 4 4 4 4 4 4 2 2 2 2 2 2 2 2 2 2 2 2 2 2 2 2 2 2 2 2 2 2 2 2 2 2 2 2 2 2 4 4 4 4 4 4 4 4 4 4 4 4 4 4 4 4 4 4 4 4 4 4 4 4 4 4 4 4 4 4 ];
r=[ 0 0 0 0 0 0 0 0 0 0 0 0 0 0 0 0 0 0 0 0 0 0 0 0 0 0 0 0 0 0 0 0 0 0 0 0 0 0 0 0 0 0 0 0 0 0 0 0 0 0 0 0 0 0 0 0 0 0 0 0 0 0 0 0 0 0 0 0 0 0 0 0 0 0 0 0 0 0 0 0 0 0 0 0 0 0 0 0 0 0 ];
d=[ 14 17 5 1 0 9 0 13 3 17 18 13 6 14 6 10 15 0 11 11 5 7 12 10 13 8 9 5 9 12 18 6 0 17 11 13 3 16 10 7 2 0 1 15 12 6 12 6 3 7 5 7 8 7 14 1 16 10 10 6 4 5 1 1 12 3 5 1 18 0 8 7 3 12 11 3 2 15 14 16 3 3 3 14 6 9 0 11 17 4 ];
s=[ 1 1 1 1 1 1 1 1 1 1 1 1 1 1 1 1 1 1 1 1 1 1 1 1 1 1 1 1 1 1 1 1 1 1 1 1 1 1 1 1 1 1 1 1 1 1 1 1 1 1 1 1 1 1 1 1 1 1 1 1 1 1 1 1 1 1 1 1 1 1 1 1 1 1 1 1 1 1 1 1 1 1 1 1 1 1 1 1 1 1 ];
w=[ 4 5 2 4 3 1 3 4 5 4 3 5 5 5 2 1 5 4 1 3 1 2 4 3 3 4 1 4 2 3 1 3 4 4 2 4 5 2 4 5 1 1 3 3 3 4 4 3 3 3 2 1 5 1 1 2 3 1 5 4 5 5 4 4 5 4 2 1 2 3 1 1 2 4 3 3 1 2 3 4 5 3 1 2 3 5 2 3 4 5 ];
f=[ 1 1 1 1 1 1 1 1 1 1 1 1 1 1 1 1 1 1 1 1 1 1 1 1 1 1 1 1 1 1 2 2 2 2 2 2 2 2 2 2 2 2 2 2 2 2 2 2 2 2 2 2 2 2 2 2 2 2 2 2 3 3 3 3 3 3 3 3 3 3 3 3 3 3 3 3 3 3 3 3 3 3 3 3 3 3 3 3 3 3 ];

e1=[ 10 10 10 10 10 10 10 10 10 10 10 10 8 8 8 8 8 8 8 8 8 8 8 8 ];
e2=[ 10 10 10 10 10 10 10 10 9 9 9 9 8 8 8 8 8 8 8 8 9 9 9 9 ];